%SETS
JOBS     = 1..10;
MACHINES = 1..10;
SPEED    = 5;

time        = array3d(JOBS,MACHINES,1..SPEED,[25, 8, 6, 5, 4, 19, 6, 4, 3, 3, 3, 1, 1, 1, 1, 18, 6, 4, 3, 3, 5, 1, 1, 1, 1, 39, 13, 9, 8, 7, 49, 17, 12, 10, 8, 17, 6, 4, 3, 3, 48, 16, 11, 9, 8, 2, 1, 1, 1, 1, 18, 6, 4, 3, 3, 1, 1, 1, 1, 1, 14, 4, 3, 2, 2, 2, 1, 1, 1, 1, 3, 1, 1, 1, 1, 23, 8, 5, 4, 4, 6, 2, 1, 1, 1, 2, 1, 1, 1, 1, 6, 2, 1, 1, 1, 11, 3, 2, 2, 2, 16, 5, 3, 3, 2, 5, 2, 1, 1, 1, 26, 9, 6, 5, 4, 17, 5, 4, 3, 3, 18, 6, 4, 3, 3, 12, 4, 3, 2, 2, 40, 14, 10, 8, 7, 22, 7, 5, 4, 4, 4, 1, 1, 1, 1, 31, 10, 7, 6, 5, 86, 29, 21, 17, 15, 17, 6, 4, 3, 3, 57, 19, 13, 11, 10, 10, 3, 2, 2, 1, 21, 7, 5, 4, 3, 14, 4, 3, 2, 2, 14, 5, 3, 3, 2, 38, 13, 9, 7, 6, 19, 6, 4, 4, 3, 79, 27, 19, 16, 14, 20, 7, 4, 4, 3, 2, 1, 1, 1, 1, 11, 4, 2, 2, 2, 49, 17, 12, 10, 8, 13, 4, 3, 2, 2, 1, 1, 1, 1, 1, 7, 2, 1, 1, 1, 1, 1, 1, 1, 1, 131, 45, 32, 26, 23, 91, 31, 22, 18, 16, 41, 14, 10, 8, 7, 23, 8, 5, 4, 4, 37, 12, 9, 7, 6, 4, 1, 1, 1, 1, 8, 3, 2, 1, 1, 19, 6, 4, 3, 3, 11, 3, 2, 2, 2, 1, 1, 1, 1, 1, 105, 36, 25, 21, 19, 15, 5, 3, 3, 2, 18, 6, 4, 3, 3, 10, 3, 2, 2, 1, 7, 2, 1, 1, 1, 12, 4, 3, 2, 2, 46, 15, 11, 9, 8, 34, 11, 8, 7, 6, 12, 4, 3, 2, 2, 1, 1, 1, 1, 1, 41, 14, 10, 8, 7, 8, 2, 1, 1, 1, 22, 7, 5, 4, 4, 1, 1, 1, 1, 1, 28, 9, 6, 5, 5, 12, 4, 3, 2, 2, 17, 6, 4, 3, 3, 13, 4, 3, 2, 2, 11, 3, 2, 2, 2, 20, 7, 5, 4, 3, 93, 32, 22, 18, 16, 3, 1, 1, 1, 1, 9, 3, 2, 1, 1, 1, 1, 1, 1, 1, 34, 11, 8, 7, 6, 27, 9, 6, 5, 4, 6, 2, 1, 1, 1, 13, 4, 3, 2, 2, 26, 9, 6, 5, 4, 28, 9, 6, 5, 5, 4, 1, 1, 1, 1, 55, 19, 13, 11, 9, 38, 13, 9, 7, 7, 3, 1, 1, 1, 1, 52, 18, 12, 10, 9, 35, 12, 8, 7, 6, 41, 14, 10, 8, 7, 20, 7, 4, 4, 3, 6, 2, 1, 1, 1, 64, 22, 15, 13, 11, 23, 8, 5, 4, 4, 10, 3, 2, 2, 1]);
energy      = array3d(JOBS,MACHINES,1..SPEED,[77, 92, 94, 95, 96, 82, 94, 96, 97, 97, 97, 99, 99, 99, 99, 83, 94, 96, 97, 97, 95, 99, 99, 99, 99, 67, 87, 91, 92, 93, 61, 84, 88, 90, 92, 84, 94, 96, 97, 97, 61, 85, 89, 91, 92, 98, 99, 99, 99, 99, 83, 94, 96, 97, 97, 99, 99, 99, 99, 99, 86, 96, 97, 98, 98, 98, 99, 99, 99, 99, 97, 99, 99, 99, 99, 79, 92, 95, 96, 96, 94, 98, 99, 99, 99, 98, 99, 99, 99, 99, 94, 98, 99, 99, 99, 89, 97, 98, 98, 98, 85, 95, 97, 97, 98, 95, 98, 99, 99, 99, 77, 91, 94, 95, 96, 84, 95, 96, 97, 97, 83, 94, 96, 97, 97, 88, 96, 97, 98, 98, 67, 86, 90, 92, 93, 80, 93, 95, 96, 96, 96, 99, 99, 99, 99, 73, 90, 93, 94, 95, 42, 74, 81, 84, 86, 84, 94, 96, 97, 97, 56, 82, 87, 89, 90, 90, 97, 98, 98, 99, 81, 93, 95, 96, 97, 86, 96, 97, 98, 98, 86, 95, 97, 97, 98, 68, 87, 91, 93, 94, 82, 94, 96, 96, 97, 45, 76, 82, 85, 86, 81, 93, 96, 96, 97, 98, 99, 99, 99, 99, 89, 96, 98, 98, 98, 61, 84, 88, 90, 92, 87, 96, 97, 98, 98, 99, 99, 99, 99, 99, 93, 98, 99, 99, 99, 99, 99, 99, 99, 99, 26, 63, 72, 77, 79, 40, 73, 80, 83, 85, 66, 86, 90, 92, 93, 79, 92, 95, 96, 96, 69, 88, 91, 93, 94, 96, 99, 99, 99, 99, 92, 97, 98, 99, 99, 82, 94, 96, 97, 97, 89, 97, 98, 98, 98, 99, 99, 99, 99, 99, 34, 69, 77, 81, 82, 86, 95, 97, 97, 98, 83, 94, 96, 97, 97, 90, 97, 98, 98, 99, 93, 98, 99, 99, 99, 88, 96, 97, 98, 98, 63, 86, 89, 91, 92, 71, 89, 92, 93, 94, 88, 96, 97, 98, 98, 99, 99, 99, 99, 99, 66, 86, 90, 92, 93, 92, 98, 99, 99, 99, 80, 93, 95, 96, 96, 99, 99, 99, 99, 99, 75, 91, 94, 95, 95, 88, 96, 97, 98, 98, 84, 94, 96, 97, 97, 87, 96, 97, 98, 98, 89, 97, 98, 98, 98, 81, 93, 95, 96, 97, 39, 72, 80, 83, 85, 97, 99, 99, 99, 99, 91, 97, 98, 99, 99, 99, 99, 99, 99, 99, 71, 89, 92, 93, 94, 76, 91, 94, 95, 96, 94, 98, 99, 99, 99, 87, 96, 97, 98, 98, 77, 91, 94, 95, 96, 75, 91, 94, 95, 95, 96, 99, 99, 99, 99, 57, 82, 87, 89, 91, 68, 87, 91, 93, 93, 97, 99, 99, 99, 99, 59, 83, 88, 90, 91, 70, 88, 92, 93, 94, 66, 86, 90, 92, 93, 81, 93, 96, 96, 97, 94, 98, 99, 99, 99, 52, 80, 86, 87, 89, 79, 92, 95, 96, 96, 90, 97, 98, 98, 99]);
precedence  = array2d(JOBS,MACHINES,[4, 6, 1, 7, 9, 5, 8, 2, 3, 0, 1, 3, 8, 9, 0, 6, 7, 5, 4, 2, 8, 6, 3, 1, 2, 7, 9, 0, 5, 4, 3, 1, 5, 9, 8, 4, 7, 0, 6, 2, 5, 9, 8, 7, 4, 1, 2, 0, 3, 6, 2, 8, 1, 9, 0, 4, 5, 7, 6, 3, 1, 5, 9, 6, 0, 3, 8, 4, 7, 2, 9, 4, 7, 6, 2, 8, 1, 5, 3, 0, 5, 7, 4, 8, 1, 9, 3, 6, 0, 2, 9, 0, 7, 4, 5, 3, 8, 1, 2, 6]);
releaseDate = [0, 90, 100, 10, 50, 90, 20, 0, 100, 0];
dueDate     = [68, 113, 140, 115, 179, 184, 86, 61, 161, 89];